Route #1: 7 33 55 22 58 51
Route #2: 21 46 23 24
Route #3: 54 16 37 60 61
Route #4: 12 6 27 35 8
Route #5: 17 56 29 40 15 25
Route #6: 49 45 39 1 41 9 2 14 53
Route #7: 59 10 19 42 3 5 18
Route #8: 52 43 30 36 48
Route #9: 20 28 13 26 4 38
Route #10: 31 44 47 11 34 32 57 50 62
Cost 1319
Time 0.117008
